JOBS = 1..3;
MACHINES = 1..4;
SPEED = 4;
time = array3d(JOBS,MACHINES,1..SPEED,[112,33,24,20,64,19,13,11,46,13,10,8,85,25,18,15,66,19,14,11,45,13,9,8,36,10,7,6,27,8,5,4,214,64,46,38,154,46,33,27,205,61,44,36,164,49,35,29]);
energy = array3d(JOBS,MACHINES,1..SPEED,[32,71,78,81,52,82,87,89,63,87,90,92,42,77,83,86,51,82,86,89,63,87,91,92,69,90,93,94,76,92,95,96,11,52,63,68,21,63,71,76,12,54,64,69,19,61,70,74]);
precedence = array2d(JOBS,MACHINES,[0,3,2,1,3,0,2,1,1,2,3,0]);
ME = 1;
TE = 106;
st_old = array2d(JOBS,MACHINES,[0,145,60,35,143,0,107,80,35,99,145,0]);
SpeedScaling = array2d(JOBS,MACHINES,[2,1,1,2,1,1,1,1,2,2,2,3]);
